; QF_LIA benchmark: system_03
(set-logic QF_LIA)
(declare-fun v0 () Int)
(declare-fun v1 () Int)
(declare-fun v2 () Int)
(declare-fun v3 () Int)
(assert (<= (+ (* -4 v0) (* -2 v1) (* -4 v2) (* 3 v3)) 47))
(assert (= (+ (* 4 v0) (* 4 v1) (* 4 v2) (* -2 v3)) 49))
(assert (<= (+ (* 1 v0) (* 2 v1) (* 2 v2) (* -1 v3)) 25))
(assert (= (+ (* -1 v0) (* 4 v1) (* 4 v2) (* -5 v3)) 28))
(assert (= (+ (* -4 v0) (* -2 v1) (* 5 v2) (* -2 v3)) -17))
(assert (>= (+ (* -4 v0) (* -3 v1) (* -2 v2) (* -3 v3)) 20))
(check-sat)
(exit)
